(set-info :source |printed by MathSAT|)
(declare-fun _OK_ () Bool)
(declare-fun call_intloopcounter.flby () Int)
(declare-fun d () Bool)
(declare-fun call_intloopcounter.out () Bool)
(declare-fun call_greycounter.flby2 () Bool)
(declare-fun call_greycounter.flby () Bool)
(declare-fun call_greycounter.a () Bool)
(declare-fun call_intloopcounter.time () Int)
(declare-fun b () Bool)
(declare-fun call_greycounter.out () Bool)
(declare-fun call_greycounter.b () Bool)
(define-fun .def_125 () Bool (= call_intloopcounter.flby 0))
(define-fun .def_123 () Bool (not call_greycounter.flby2))
(define-fun .def_122 () Bool (not call_greycounter.flby))
(define-fun .def_124 () Bool (and .def_122 .def_123))
(define-fun .def_126 () Bool (and .def_124 .def_125))
(define-fun .def_120 () Bool (= call_intloopcounter.time call_intloopcounter.flby))
(define-fun .def_116 () Bool (= call_intloopcounter.time 2))
(define-fun .def_117 () Bool (= call_intloopcounter.out .def_116))
(define-fun .def_113 () Bool (= call_greycounter.b call_greycounter.flby2))
(define-fun .def_110 () Bool (= call_greycounter.a call_greycounter.flby))
(define-fun .def_106 () Bool (and call_greycounter.a call_greycounter.b))
(define-fun .def_107 () Bool (= call_greycounter.out .def_106))
(define-fun .def_102 () Bool (= d call_intloopcounter.out))
(define-fun .def_99 () Bool (= b call_greycounter.out))
(define-fun .def_96 () Bool (= b d))
(define-fun .def_97 () Bool (= _OK_ .def_96))
(define-fun .def_100 () Bool (and .def_97 .def_99))
(define-fun .def_103 () Bool (and .def_100 .def_102))
(define-fun .def_108 () Bool (and .def_103 .def_107))
(define-fun .def_111 () Bool (and .def_108 .def_110))
(define-fun .def_114 () Bool (and .def_111 .def_113))
(define-fun .def_118 () Bool (and .def_114 .def_117))
(define-fun .def_121 () Bool (and .def_118 .def_120))
(define-fun .def_127 () Bool (and .def_121 .def_126))
(assert .def_127)
